data/benchmarks/bayes/90-15-9-q.cnf
p cnf 1065 889
c weights 0.757308 0.24269200000000002 1 1 1 1 1 1 1 1 1 1 1 1 1 1 1 1 1 1 1 1 1 1 1 1 1 1 1 1 1 1 1 1 1 1 1 1 1 1 1 1 1 1 1 1 1 1 1 1 1 1 1 1 1 1 1 1 1 1 1 1 1 1 1 1 1 1 1 1 1 1 1 1 1 1 1 1 1 1 1 1 1 1 1 1 1 1 1 1 1 1 1 1 1 1 1 1 1 1 1 1 1 1 1 1 1 1 1 1 1 1 1 1 1 1 1 1 1 1 1 1 1 1 1 1 1 1 1 1 1 1 1 1 1 1 1 1 1 1 1 1 1 1 1 1 1 1 1 1 1 1 1 1 1 1 1 1 1 1 1 1 1 1 1 1 1 1 1 1 1 1 1 1 1 1 1 1 1 1 1 1 1 1 1 1 1 1 1 1 1 1 1 1 1 1 1 1 1 1 1 1 1 1 1 1 1 1 1 1 1 1 1 1 1 1 1 1 1 1 1 1 1 1 1 1 1 1 1 1 1 1 1 1 1 1 1 1 1 1 1 1 1 1 1 1 1 1 1 1 1 1 1 1 1 1 1 1 1 1 1 1 1 1 1 1 1 1 1 1 1 1 1 1 1 1 1 1 1 1 1 1 1 1 1 1 1 1 1 1 1 1 1 1 1 1 1 1 1 1 1 1 1 1 1 1 1 1 1 1 1 1 1 1 1 1 1 1 1 1 1 1 1 1 1 1 1 1 1 1 1 1 1 1 1 1 1 1 1 1 1 1 1 1 1 1 1 1 1 1 1 1 1 1 1 1 1 1 1 1 1 1 1 1 1 1 1 1 1 1 1 1 1 1 1 1 1 1 1 1 1 1 1 1 1 1 1 1 1 1 1 1 1 1 1 1 1 1 1 1 1 1 1 1 1 1 1 1 1 1 1 1 1 1 1 1 1 1 1 1 1 1 1 1 1 1 1 1 1 1 1 1 1 1 1 1 1 1 1 1 1 1 1 1 1 1 1 1 1 1 0.5 0.5 0.5 0.5 0.5 0.5 0.5 0.5 0.5 0.5 0.5 0.5 0.5 0.5 0.5 0.5 0.5 0.5 0.5 0.5 0.5 0.5 0.5 0.5 0.5 0.5 0.5 0.5 0.82754 0.17245999999999995 0.55327 0.44672999999999996 0.5 0.5 0.5 0.5 0.5 0.5 0.5 0.5 0.814175 0.18582500000000002 0.139484 0.8605160000000001 0.5 0.5 0.5 0.5 0.5 0.5 0.5 0.5 0.5 0.5 0.5 0.5 0.5 0.5 0.5 0.5 0.5 0.5 0.5 0.5 0.5 0.5 0.5 0.5 0.5 0.5 0.5 0.5 0.5 0.5 0.5 0.5 0.5 0.5 0.5 0.5 0.5 0.5 0.5 0.5 0.5 0.5 0.5 0.5 0.5 0.5 0.5 0.5 0.5 0.5 0.5 0.5 0.5 0.5 0.5 0.5 0.5 0.5 0.5 0.5 0.5 0.5 0.5 0.5 0.5 0.5 0.5 0.5 0.5 0.5 0.5 0.5 0.5 0.5 0.5 0.5 0.5 0.5 0.5 0.5 0.5 0.5 0.5 0.5 0.5 0.5 0.5 0.5 0.5 0.5 0.5 0.5 0.5 0.5 0.5 0.5 0.5 0.5 0.5 0.5 0.5 0.5 0.5 0.5 0.706226 0.293774 0.258343 0.741657 0.167461 0.832539 0.943395 0.056605000000000016 0.5 0.5 0.5 0.5 0.5 0.5 0.5 0.5 0.5 0.5 0.5 0.5 0.5 0.5 0.5 0.5 0.5 0.5 0.5 0.5 0.5 0.5 0.5 0.5 0.5 0.5 0.5 0.5 0.5 0.5 0.5 0.5 0.5 0.5 0.5 0.5 0.5 0.5 0.5 0.5 0.5 0.5 0.5 0.5 0.5 0.5 0.5 0.5 0.5 0.5 0.5 0.5 0.5 0.5 0.5 0.5 0.5 0.5 0.5 0.5 0.5 0.5 0.5 0.5 0.5 0.5 0.5 0.5 0.5 0.5 0.5 0.5 0.5 0.5 0.5 0.5 0.5 0.5 0.5 0.5 0.5 0.5 0.5 0.5 0.5 0.5 0.5 0.5 0.5 0.5 0.5 0.5 0.5 0.5 0.5 0.5 0.5 0.5 0.5 0.5 0.5 0.5 0.5 0.5 0.5 0.5 0.5 0.5 0.5 0.5 0.5 0.5 0.5 0.5 0.5 0.5 0.5 0.5 0.5 0.5 0.5 0.5 0.5 0.5 0.5 0.5 0.5 0.5 0.5 0.5 0.5 0.5 0.5 0.5 0.5 0.5 0.5 0.5 0.5 0.5 0.5 0.5 0.5 0.5 0.5 0.5 0.5 0.5 0.5 0.5 0.5 0.5 0.5 0.5 0.5 0.5 0.5 0.5 0.5 0.5 0.5 0.5 0.5 0.5 0.5 0.5 0.5 0.5 0.5 0.5 0.5 0.5 0.5 0.5 0.5 0.5 0.5 0.5 0.5 0.5 0.5 0.5 0.5 0.5 0.5 0.5 0.5 0.5 0.5 0.5 0.5 0.5 0.5 0.5 0.5 0.5 0.5 0.5 0.5 0.5 0.5 0.5 0.5 0.5 0.5 0.5 0.5 0.5 0.5 0.5 0.5 0.5 0.5 0.5 0.5 0.5 0.5 0.5 0.5 0.5 0.5 0.5 0.5 0.5 0.5 0.5 0.5 0.5 0.5 0.5 0.5 0.5 0.5 0.5 0.5 0.5 0.5 0.5 0.5 0.5 0.5 0.5 0.5 0.5 0.5 0.5 0.5 0.5 0.5 0.5 0.5 0.5 0.5 0.5 0.5 0.5 0.5 0.5 0.5 0.5 0.5 0.5 0.5 0.5 0.5 0.5 0.5 0.5 0.5 0.5 0.5 0.5 0.5 0.5 0.5 0.5 0.5 0.5 0.5 0.5 0.5 0.5 0.5 0.5 0.5 0.5 0.5 0.5 0.5 0.5 0.5 0.5 0.5 0.5 0.5 0.5 0.5 0.5 0.5 0.5 0.5 0.5 0.5 0.5 0.5 0.5 0.5 0.5 0.5 0.5 0.5 0.5 0.5 0.5 0.5 0.5 0.5 0.5 0.5 0.5 0.5 0.5 0.5 0.5 0.292876 0.707124 0.634999 0.365001 0.312592 0.687408 0.322748 0.677252 0.5 0.5 0.5 0.5 0.5 0.5 0.5 0.5 0.5 0.5 0.5 0.5 0.5 0.5 0.5 0.5 0.5 0.5 0.5 0.5 0.5 0.5 0.5 0.5 0.5 0.5 0.5 0.5 0.5 0.5 0.5 0.5 0.5 0.5 0.5 0.5 0.5 0.5 0.5 0.5 0.5 0.5 0.5 0.5 0.5 0.5 0.5 0.5 0.5 0.5 0.5 0.5 0.5 0.5 0.5 0.5 0.5 0.5 0.5 0.5 0.5 0.5 0.5 0.5 0.5 0.5 0.5 0.5 0.5 0.5 0.5 0.5 0.5 0.5 0.5 0.5 0.5 0.5 0.5 0.5 0.5 0.5 0.5 0.5 0.5 0.5 0.5 0.5 0.5 0.5 0.5 0.5 0.5 0.5 0.5 0.5 0.5 0.5 0.5 0.5 0.5 0.5 0.5 0.5 0.5 0.5 0.5 0.5 0.5 0.5 0.5 0.5 0.5 0.5 0.5 0.5 0.5 0.5 0.5 0.5 0.5 0.5 0.5 0.5 0.364884 0.635116 0.225665 0.774335 0.401885 0.598115 0.778335 0.221665 0.5 0.5 0.5 0.5 0.5 0.5 0.5 0.5 0.5 0.5 0.5 0.5 0.5 0.5 0.5 0.5 0.5 0.5 0.5 0.5 0.5 0.5 0.5 0.5 0.5 0.5 0.5 0.5 0.5 0.5 0.5 0.5 0.5 0.5 0.5 0.5 0.5 0.5 0.5 0.5 0.5 0.5 0.5 0.5 0.5 0.5 0.5 0.5 0.5 0.5 0.5 0.5 0.5 0.5 0.5 0.5 0.5 0.5 0.5 0.5 0.5 0.5 0.5 0.5 0.5 0.5 0.5 0.5 0.5 0.5 0.5 0.5 0.5 0.5 0.5 0.5 0.5 0.5 0.5 0.5 0.5 0.5 0.5 0.5 0.5 0.5 0.5 0.5 0.5 0.5 0.5 0.5 0.5 0.5 0.5 0.5 0.5 0.5 0.5 0.5 0.5 0.5 0.5 0.5 0.5 0.5 0.5 0.5 0.5 0.5 0.5 0.5 0.5 0.5 0.5 0.5 0.5 0.5 0.5 0.5 0.5 0.5 0.5 0.5 0.5 0.5 0.5 0.5 0.5 0.5 0.5 0.5 0.5 0.5 0.5 0.5 0.5 0.5 0.5 0.5 0.5 0.5 0.5 0.5 0.5 0.5 0.5 0.5 0.5 0.5 0.5 0.5 0.5 0.5 0.5 0.5 0.5 0.5 0.5 0.5 0.5 0.5 0.5 0.5 0.5 0.5 0.5 0.5 0.5 0.5 0.5 0.5 0.5 0.5 0.5 0.5 0.5 0.5 0.5 0.5 0.5 0.5 0.5 0.5 0.436289 0.5637110000000001 0.402524 0.597476 0.870506 0.129494 0.288867 0.711133 0.5 0.5 0.5 0.5 0.5 0.5 0.5 0.5 0.5 0.5 0.5 0.5 0.5 0.5 0.5 0.5 0.5 0.5 0.5 0.5 0.5 0.5 0.5 0.5 0.5 0.5 0.5 0.5 0.5 0.5 0.5 0.5 0.5 0.5 0.5 0.5 0.5 0.5 0.5 0.5 0.5 0.5 0.5 0.5 0.5 0.5 0.5 0.5 0.5 0.5 0.5 0.5 0.5 0.5 0.5 0.5 0.5 0.5 0.5 0.5 0.5 0.5 0.5 0.5 0.5 0.5 0.5 0.5 0.5 0.5 0.5 0.5 0.5 0.5 0.5 0.5 0.35567 0.6443300000000001 0.0740187 0.9259813 0.832931 0.16706900000000002 0.179556 0.820444 0.137308 0.862692 0.253964 0.7460359999999999 0.0038981 0.9961019 0.432367 0.567633 0.5 0.5 0.5 0.5 0.5 0.5 0.5 0.5 0.5 0.5 0.5 0.5 0.5 0.5 0.5 0.5 0.5 0.5 0.5 0.5 0.5 0.5 0.5 0.5 0.5 0.5 0.5 0.5 0.5 0.5 0.5 0.5 0.326959 0.673041 0.375548 0.624452 0.034273 0.965727 0.15989 0.84011 0.5 0.5 0.5 0.5 0.5 0.5 0.5 0.5 0.5 0.5 0.5 0.5 0.5 0.5 0.5 0.5 0.5 0.5 0.5 0.5 0.5 0.5 0.5 0.5 0.5 0.5 0.5 0.5 0.5 0.5 0.5 0.5 0.5 0.5 0.5 0.5 0.5 0.5 0.5 0.5 0.5 0.5 0.5 0.5 0.5 0.5 0.5 0.5 0.5 0.5 0.5 0.5 0.5 0.5 0.5 0.5 0.5 0.5 0.5 0.5 0.5 0.5 0.5 0.5 0.5 0.5 0.5 0.5 0.5 0.5 0.5 0.5 0.5 0.5 0.5 0.5 0.5 0.5 0.5 0.5 0.5 0.5 0.5 0.5 0.5 0.5 0.5 0.5 0.5 0.5 0.5 0.5 0.5 0.5 0.5 0.5 0.5 0.5 0.5 0.5 0.5 0.5 0.5 0.5 0.5 0.5 0.5 0.5 0.5 0.5 0.5 0.5 0.5 0.5 0.5 0.5 0.5 0.5 0.5 0.5 0.5 0.5 0.5 0.5 0.5 0.5 0.5 0.5 0.5 0.5 0.5 0.5 0.5 0.5 0.5 0.5 0.5 0.5 0.5 0.5 0.5 0.5 0.5 0.5 0.5 0.5 0.5 0.5 0.5 0.5 0.5 0.5 0.5 0.5 0.5 0.5 0.5 0.5 0.5 0.5 0.5 0.5 0.5 0.5 0.5 0.5 0.5 0.5 0.827667 0.17233299999999996 0.992913 0.0070869999999999544 0.657661 0.34233899999999995 0.386591 0.613409 0.5 0.5 0.5 0.5 0.5 0.5 0.5 0.5 0.5 0.5 0.5 0.5 0.5 0.5 0.5 0.5 0.0858401 0.9141599 0.868067 0.13193299999999997 0.304254 0.695746 0.627413 0.372587 0.5 0.5 0.5 0.5 0.5 0.5 0.5 0.5 0.5 0.5 0.5 0.5 0.5 0.5 0.5 0.5 0.5 0.5 0.5 0.5 0.5 0.5 0.5 0.5 0.5 0.5 0.5 0.5 0.5 0.5 0.5 0.5 0.398879 0.601121 0.00199078 0.99800922 0.907527 0.09247300000000003 0.484719 0.515281 0.5 0.5 0.5 0.5 0.5 0.5 0.5 0.5 0.5 0.5 0.5 0.5 0.5 0.5 0.5 0.5 0.5 0.5 0.5 0.5 0.5 0.5 0.5 0.5 0.5 0.5 0.5 0.5 0.5 0.5 0.5 0.5 0.5 0.5 0.5 0.5 0.5 0.5 0.5 0.5 0.5 0.5 0.5 0.5 0.5 0.5 0.5 0.5 0.5 0.5 0.5 0.5 0.5 0.5 0.5 0.5 0.5 0.5 0.5 0.5 0.5 0.5 0.5 0.5 0.5 0.5 0.5 0.5 0.5 0.5 0.5 0.5 0.5 0.5 0.5 0.5 0.5 0.5 0.5 0.5 0.5 0.5 0.5 0.5 0.5 0.5 0.5 0.5 0.5 0.5 0.5 0.5 0.701343 0.29865699999999995 0.79463 0.20537000000000005 0.61147 0.38853000000000004 0.116332 0.883668 0.5 0.5 0.5 0.5 0.5 0.5 0.5 0.5 0.5 0.5 0.5 0.5 0.5 0.5 0.5 0.5 0.5 0.5 0.5 0.5 0.5 0.5 0.5 0.5 0.5 0.5 0.5 0.5 0.5 0.5 0.5 0.5 0.5 0.5 0.5 0.5 0.5 0.5 0.5 0.5 0.5 0.5 0.5 0.5 0.5 0.5 0.5 0.5 0.5 0.5 0.5 0.5 0.5 0.5 0.5 0.5 0.5 0.5 0.5 0.5 0.5 0.5 0.5 0.5 0.5 0.5 0.5 0.5 0.5 0.5 0.5 0.5 0.5 0.5 0.5 0.5 0.5 0.5 0.5 0.5 0.5 0.5 0.5 0.5 0.5 0.5 0.5 0.5 0.5 0.5 0.5 0.5 0.5 0.5 0.5 0.5 0.5 0.5 0.5 0.5 0.5 0.5 0.5 0.5 0.5 0.5 0.5 0.5 0.5 0.5 0.5 0.5 0.5 0.5 0.5 0.5 0.5 0.5 0.5 0.5 0.5 0.5 0.5 0.5 0.5 0.5 0.5 0.5 0.5 0.5 0.5 0.5 0.5 0.5 0.5 0.5 0.5 0.5 0.5 0.5 0.5 0.5 0.5 0.5 0.5 0.5 0.5 0.5 0.5 0.5 0.5 0.5 0.5 0.5 0.5 0.5 0.5 0.5 0.5 0.5 0.5 0.5 0.5 0.5 0.5 0.5 0.5 0.5 0.5 0.5 0.5 0.5 0.5 0.5 0.5 0.5 0.5 0.5 0.5 0.5 0.5 0.5 0.5 0.5 0.5 0.5 0.5 0.5 0.5 0.5 0.5 0.5 0.5 0.5 0.5 0.5 0.5 0.5 0.5 0.5 0.5 0.5 0.5 0.5 0.5 0.5 0.5 0.5 0.5 0.5 0.5 0.5 0.5 0.5 0.5 0.5 0.5 0.5 0.5 0.5 0.5 0.5 0.5 0.5 0.5 0.5 0.5 0.5 0.5 0.5 0.5 0.5 0.5 0.5 0.5 0.5 0.5 0.5 0.5 0.5 0.5 0.5 0.5 0.5 0.5 0.5 0.5 0.5 0.5 0.5 0.5 0.5 0.5 0.5 0.5 0.5 0.5 0.5 0.5 0.5 0.5 0.5 0.5 0.5 0.5 0.5 0.5 0.5 0.5 0.5 0.5 0.5 0.5 0.5 0.5 0.5 0.5 0.5 0.5 0.5 0.5 0.5 0.5 0.5 0.5 0.5 0.5 0.5 0.5 0.5 0.5 0.5 0.5 0.5 0.5 0.5 0.5 0.5 0.5 0.5 0.5 0.5 0.5 0.5 0.5 0.5 0.5 0.5 0.5 0.5 0.5 0.5 0.5 0.5 0.5 0.5 0.5 0.5 0.5 0.5 0.5 0.5 0.5 0.5 0.5 0.5 0.5 0.5 0.5 0.5 0.5 0.5 0.5 0.5 0.5 0.5 0.5 0.5 0.5 0.5 0.5 0.5 0.5 0.5 0.5 0.5 0.5 0.5 0.5 0.5 0.5 0.5 0.5 0.5 0.5 0.5 0.5 0.5 0.5 0.5 0.5 0.5 0.5 0.5 0.5 0.5 0.5 0.5 0.5 0.5 0.5 0.5 0.5 0.5 0.5 0.5 0.5 0.5 0.5 0.5 0.5 0.5 0.5 0.5 0.5 0.5 0.5 0.5 0.5 0.5 0.5 0.5 0.5 0.5 0.5 0.5
-1 2 0
1 -2 0
-2 -3 0
2 3 0
-3 -4 0
3 4 0
-4 5 0
4 -5 0
-5 -6 0
5 6 0
-6 7 0
6 -7 0
-7 -8 0
7 8 0
-8 -240 9 0
-8 240 -9 0
8 -241 9 0
8 241 -9 0
-9 10 0
9 -10 0
-10 -11 0
10 11 0
-11 -246 12 0
-11 246 -12 0
11 -247 12 0
11 247 -12 0
-12 13 0
12 -13 0
-13 -14 0
13 14 0
-14 -15 0
14 15 0
-1 -16 0
1 16 0
-16 -2 -17 0
-16 2 -17 0
16 -2 17 0
16 2 -17 0
-17 -3 -18 0
-17 3 18 0
17 -3 -18 0
17 3 18 0
-18 -4 19 0
-18 4 -19 0
18 -4 -19 0
18 4 19 0
-19 -5 20 0
-19 5 -20 0
19 -5 -20 0
19 5 20 0
-20 -6 -21 0
-20 6 -21 0
20 -6 -21 0
20 6 21 0
-21 -7 -22 0
-21 7 -22 0
21 -7 22 0
21 7 -22 0
-22 -8 -23 0
-22 8 -23 0
22 -8 23 0
22 8 23 0
-23 -9 -24 0
-23 9 -24 0
23 -9 -24 0
23 9 24 0
-24 -10 25 0
-24 10 25 0
24 -10 -25 0
24 10 -25 0
-25 -11 -26 0
-25 11 26 0
25 -11 -26 0
25 11 26 0
-26 -12 -27 0
-26 12 -27 0
26 -12 27 0
26 12 -27 0
-27 -13 -300 28 0
-27 -13 300 -28 0
-27 13 -301 28 0
-27 13 301 -28 0
27 -13 -302 28 0
27 -13 302 -28 0
27 13 -303 28 0
27 13 303 -28 0
-28 -14 29 0
-28 14 -29 0
28 -14 -29 0
28 14 29 0
-29 -15 -30 0
-29 15 30 0
29 -15 30 0
29 15 -30 0
-16 31 0
16 -31 0
-31 -17 -32 0
-31 17 32 0
31 -17 32 0
31 17 -32 0
-32 -18 -33 0
-32 18 33 0
32 -18 33 0
32 18 33 0
-33 -19 34 0
-33 19 -34 0
33 -19 34 0
33 19 -34 0
-34 -20 35 0
-34 20 -35 0
34 -20 35 0
34 20 35 0
-35 -21 36 0
-35 21 36 0
35 -21 -36 0
35 21 -36 0
-36 -22 37 0
-36 22 37 0
36 -22 37 0
36 22 -37 0
-37 -23 -38 0
-37 23 -38 0
37 -23 38 0
37 23 -38 0
-38 -24 39 0
-38 24 -39 0
38 -24 39 0
38 24 -39 0
-39 -25 40 0
-39 25 40 0
39 -25 -40 0
39 25 -40 0
-40 -26 -41 0
-40 26 -41 0
40 -26 41 0
40 26 41 0
-41 -27 42 0
-41 27 -42 0
41 -27 42 0
41 27 42 0
-42 -28 -43 0
-42 28 43 0
42 -28 43 0
42 28 -43 0
-43 -29 44 0
-43 29 -44 0
43 -29 44 0
43 29 -44 0
-44 -30 45 0
-44 30 45 0
44 -30 45 0
44 30 -45 0
-31 -46 0
31 46 0
-46 -32 47 0
-46 32 -47 0
46 -32 -47 0
46 32 47 0
-47 -33 48 0
-47 33 -48 0
47 -33 -48 0
47 33 -48 0
-48 -34 49 0
-48 34 -49 0
48 -34 -49 0
48 34 49 0
-49 -35 50 0
-49 35 50 0
49 -35 -50 0
49 35 -50 0
-50 -36 51 0
-50 36 51 0
50 -36 -51 0
50 36 -51 0
-51 -37 52 0
-51 37 52 0
51 -37 -52 0
51 37 -52 0
-52 -38 -53 0
-52 38 53 0
52 -38 -53 0
52 38 -53 0
-53 -39 -54 0
-53 39 -54 0
53 -39 54 0
53 39 -54 0
-54 -40 -55 0
-54 40 55 0
54 -40 55 0
54 40 55 0
-55 -41 -56 0
-55 41 56 0
55 -41 56 0
55 41 -56 0
-56 -42 -57 0
-56 42 57 0
56 -42 57 0
56 42 -57 0
-57 -43 -58 0
-57 43 -58 0
57 -43 58 0
57 43 -58 0
-58 -44 59 0
-58 44 -59 0
58 -44 59 0
58 44 -59 0
-59 -45 60 0
-59 45 -60 0
59 -45 60 0
59 45 -60 0
-46 -61 0
46 61 0
-61 -47 -62 0
-61 47 62 0
61 -47 -62 0
61 47 -62 0
-62 -48 63 0
-62 48 63 0
62 -48 -63 0
62 48 -63 0
-63 -49 64 0
-63 49 64 0
63 -49 -64 0
63 49 -64 0
-64 -50 -65 0
-64 50 65 0
64 -50 65 0
64 50 65 0
-65 -51 66 0
-65 51 66 0
65 -51 -66 0
65 51 -66 0
-66 -52 67 0
-66 52 67 0
66 -52 -67 0
66 52 -67 0
-67 -53 68 0
-67 53 -68 0
67 -53 68 0
67 53 68 0
-68 -54 69 0
-68 54 -69 0
68 -54 -69 0
68 54 69 0
-69 -55 70 0
-69 55 70 0
69 -55 70 0
69 55 -70 0
-70 -56 -466 71 0
-70 -56 466 -71 0
-70 56 -467 71 0
-70 56 467 -71 0
70 -56 -468 71 0
70 -56 468 -71 0
70 56 -469 71 0
70 56 469 -71 0
-71 -57 -72 0
-71 57 72 0
71 -57 -72 0
71 57 -72 0
-72 -58 73 0
-72 58 73 0
72 -58 73 0
72 58 -73 0
-73 -59 74 0
-73 59 74 0
73 -59 74 0
73 59 -74 0
-74 -60 -75 0
-74 60 -75 0
74 -60 -75 0
74 60 75 0
-61 -76 0
61 76 0
-76 -62 -77 0
-76 62 77 0
76 -62 77 0
76 62 -77 0
-77 -63 -78 0
-77 63 -78 0
77 -63 78 0
77 63 78 0
-78 -64 79 0
-78 64 -79 0
78 -64 -79 0
78 64 -79 0
-79 -65 80 0
-79 65 80 0
79 -65 -80 0
79 65 80 0
-80 -66 81 0
-80 66 -81 0
80 -66 81 0
80 66 81 0
-81 -67 -82 0
-81 67 82 0
81 -67 -82 0
81 67 -82 0
-82 -68 83 0
-82 68 -83 0
82 -68 -83 0
82 68 -83 0
-83 -69 -84 0
-83 69 -84 0
83 -69 -84 0
83 69 84 0
-84 -70 -85 0
-84 70 -85 0
84 -70 85 0
84 70 -85 0
-85 -71 86 0
-85 71 86 0
85 -71 -86 0
85 71 86 0
-86 -72 -87 0
-86 72 87 0
86 -72 87 0
86 72 -87 0
-87 -73 -532 88 0
-87 -73 532 -88 0
-87 73 -533 88 0
-87 73 533 -88 0
87 -73 -534 88 0
87 -73 534 -88 0
87 73 -535 88 0
87 73 535 -88 0
-88 -74 89 0
-88 74 89 0
88 -74 -89 0
88 74 -89 0
-89 -75 -90 0
-89 75 -90 0
89 -75 -90 0
89 75 90 0
-76 -91 0
76 91 0
-91 -77 -92 0
-91 77 -92 0
91 -77 -92 0
91 77 92 0
-92 -78 -93 0
-92 78 -93 0
92 -78 93 0
92 78 -93 0
-93 -79 -94 0
-93 79 -94 0
93 -79 94 0
93 79 -94 0
-94 -80 -95 0
-94 80 95 0
94 -80 95 0
94 80 95 0
-95 -81 -96 0
-95 81 96 0
95 -81 96 0
95 81 -96 0
-96 -82 97 0
-96 82 -97 0
96 -82 97 0
96 82 -97 0
-97 -83 -98 0
-97 83 -98 0
97 -83 98 0
97 83 98 0
-98 -84 -99 0
-98 84 99 0
98 -84 -99 0
98 84 -99 0
-99 -85 100 0
-99 85 -100 0
99 -85 100 0
99 85 -100 0
-100 -86 101 0
-100 86 -101 0
100 -86 101 0
100 86 -101 0
-101 -87 -102 0
-101 87 -102 0
101 -87 102 0
101 87 102 0
-102 -88 103 0
-102 88 -103 0
102 -88 -103 0
102 88 -103 0
-103 -89 104 0
-103 89 -104 0
103 -89 -104 0
103 89 -104 0
-104 -90 -105 0
-104 90 -105 0
104 -90 105 0
104 90 -105 0
-91 106 0
91 -106 0
-106 -92 107 0
-106 92 107 0
106 -92 107 0
106 92 -107 0
-107 -93 108 0
-107 93 -108 0
107 -93 -108 0
107 93 108 0
-108 -94 109 0
-108 94 -109 0
108 -94 109 0
108 94 -109 0
-109 -95 -110 0
-109 95 -110 0
109 -95 110 0
109 95 110 0
-110 -96 111 0
-110 96 111 0
110 -96 -111 0
110 96 111 0
-111 -97 112 0
-111 97 112 0
111 -97 -112 0
111 97 112 0
-112 -98 -628 113 0
-112 -98 628 -113 0
-112 98 -629 113 0
-112 98 629 -113 0
112 -98 -630 113 0
112 -98 630 -113 0
112 98 -631 113 0
112 98 631 -113 0
-113 -99 -114 0
-113 99 114 0
113 -99 114 0
113 99 -114 0
-114 -100 -115 0
-114 100 115 0
114 -100 -115 0
114 100 -115 0
-115 -101 116 0
-115 101 -116 0
115 -101 -116 0
115 101 -116 0
-116 -102 117 0
-116 102 117 0
116 -102 -117 0
116 102 -117 0
-117 -103 118 0
-117 103 118 0
117 -103 -118 0
117 103 118 0
-118 -104 119 0
-118 104 -119 0
118 -104 -119 0
118 104 119 0
-119 -105 120 0
-119 105 120 0
119 -105 -120 0
119 105 120 0
-106 121 0
106 -121 0
-121 -107 -122 0
-121 107 122 0
121 -107 122 0
121 107 -122 0
-122 -108 123 0
-122 108 123 0
122 -108 -123 0
122 108 -123 0
-123 -109 -670 124 0
-123 -109 670 -124 0
-123 109 -671 124 0
-123 109 671 -124 0
123 -109 -672 124 0
123 -109 672 -124 0
123 109 -673 124 0
123 109 673 -124 0
-124 -110 -674 125 0
-124 -110 674 -125 0
-124 110 -675 125 0
-124 110 675 -125 0
124 -110 -676 125 0
124 -110 676 -125 0
124 110 -677 125 0
124 110 677 -125 0
-125 -111 -126 0
-125 111 -126 0
125 -111 126 0
125 111 126 0
-126 -112 -127 0
-126 112 127 0
126 -112 -127 0
126 112 127 0
-127 -113 -128 0
-127 113 -128 0
127 -113 -128 0
127 113 128 0
-128 -114 -129 0
-128 114 129 0
128 -114 129 0
128 114 129 0
-129 -115 -694 130 0
-129 -115 694 -130 0
-129 115 -695 130 0
-129 115 695 -130 0
129 -115 -696 130 0
129 -115 696 -130 0
129 115 -697 130 0
129 115 697 -130 0
-130 -116 -131 0
-130 116 -131 0
130 -116 131 0
130 116 131 0
-131 -117 -132 0
-131 117 132 0
131 -117 132 0
131 117 132 0
-132 -118 133 0
-132 118 -133 0
132 -118 -133 0
132 118 133 0
-133 -119 -134 0
-133 119 134 0
133 -119 134 0
133 119 -134 0
-134 -120 -135 0
-134 120 135 0
134 -120 -135 0
134 120 135 0
-121 136 0
121 -136 0
-136 -122 137 0
-136 122 137 0
136 -122 -137 0
136 122 137 0
-137 -123 -138 0
-137 123 -138 0
137 -123 138 0
137 123 138 0
-138 -124 -139 0
-138 124 139 0
138 -124 -139 0
138 124 139 0
-139 -125 -140 0
-139 125 140 0
139 -125 140 0
139 125 140 0
-140 -126 141 0
-140 126 141 0
140 -126 -141 0
140 126 -141 0
-141 -127 142 0
-141 127 -142 0
141 -127 -142 0
141 127 142 0
-142 -128 -143 0
-142 128 -143 0
142 -128 143 0
142 128 -143 0
-143 -129 -144 0
-143 129 -144 0
143 -129 144 0
143 129 144 0
-144 -130 -145 0
-144 130 145 0
144 -130 -145 0
144 130 -145 0
-145 -131 -146 0
-145 131 -146 0
145 -131 -146 0
145 131 146 0
-146 -132 147 0
-146 132 -147 0
146 -132 147 0
146 132 147 0
-147 -133 -148 0
-147 133 148 0
147 -133 -148 0
147 133 148 0
-148 -134 -149 0
-148 134 149 0
148 -134 149 0
148 134 -149 0
-149 -135 -150 0
-149 135 -150 0
149 -135 -150 0
149 135 150 0
-136 -151 0
136 151 0
-151 -137 152 0
-151 137 -152 0
151 -137 -152 0
151 137 -152 0
-152 -138 -782 153 0
-152 -138 782 -153 0
-152 138 -783 153 0
-152 138 783 -153 0
152 -138 -784 153 0
152 -138 784 -153 0
152 138 -785 153 0
152 138 785 -153 0
-153 -139 154 0
-153 139 -154 0
153 -139 154 0
153 139 -154 0
-154 -140 155 0
-154 140 155 0
154 -140 -155 0
154 140 155 0
-155 -141 -794 156 0
-155 -141 794 -156 0
-155 141 -795 156 0
-155 141 795 -156 0
155 -141 -796 156 0
155 -141 796 -156 0
155 141 -797 156 0
155 141 797 -156 0
-156 -142 -157 0
-156 142 157 0
156 -142 157 0
156 142 157 0
-157 -143 158 0
-157 143 158 0
157 -143 158 0
157 143 -158 0
-158 -144 159 0
-158 144 159 0
158 -144 159 0
158 144 -159 0
-159 -145 -160 0
-159 145 160 0
159 -145 160 0
159 145 -160 0
-160 -146 -814 161 0
-160 -146 814 -161 0
-160 146 -815 161 0
-160 146 815 -161 0
160 -146 -816 161 0
160 -146 816 -161 0
160 146 -817 161 0
160 146 817 -161 0
-161 -147 162 0
-161 147 -162 0
161 -147 -162 0
161 147 -162 0
-162 -148 163 0
-162 148 -163 0
162 -148 -163 0
162 148 -163 0
-163 -149 164 0
-163 149 -164 0
163 -149 164 0
163 149 -164 0
-164 -150 -165 0
-164 150 -165 0
164 -150 165 0
164 150 165 0
-151 166 0
151 -166 0
-166 -152 -167 0
-166 152 167 0
166 -152 167 0
166 152 -167 0
-167 -153 168 0
-167 153 -168 0
167 -153 168 0
167 153 -168 0
-168 -154 -169 0
-168 154 -169 0
168 -154 169 0
168 154 169 0
-169 -155 170 0
-169 155 170 0
169 -155 -170 0
169 155 170 0
-170 -156 -171 0
-170 156 -171 0
170 -156 171 0
170 156 -171 0
-171 -157 172 0
-171 157 -172 0
171 -157 172 0
171 157 -172 0
-172 -158 -173 0
-172 158 -173 0
172 -158 173 0
172 158 -173 0
-173 -159 -864 174 0
-173 -159 864 -174 0
-173 159 -865 174 0
-173 159 865 -174 0
173 -159 -866 174 0
173 -159 866 -174 0
173 159 -867 174 0
173 159 867 -174 0
-174 -160 -175 0
-174 160 175 0
174 -160 175 0
174 160 -175 0
-175 -161 -176 0
-175 161 176 0
175 -161 -176 0
175 161 176 0
-176 -162 -177 0
-176 162 177 0
176 -162 177 0
176 162 177 0
-177 -163 -178 0
-177 163 178 0
177 -163 -178 0
177 163 -178 0
-178 -164 179 0
-178 164 -179 0
178 -164 179 0
178 164 179 0
-179 -165 -180 0
-179 165 -180 0
179 -165 180 0
179 165 -180 0
-166 -181 0
166 181 0
-181 -167 -182 0
-181 167 182 0
181 -167 182 0
181 167 -182 0
-182 -168 -183 0
-182 168 -183 0
182 -168 183 0
182 168 -183 0
-183 -169 184 0
-183 169 184 0
183 -169 184 0
183 169 -184 0
-184 -170 -185 0
-184 170 185 0
184 -170 185 0
184 170 185 0
-185 -171 186 0
-185 171 -186 0
185 -171 186 0
185 171 -186 0
-186 -172 187 0
-186 172 187 0
186 -172 -187 0
186 172 -187 0
-187 -173 188 0
-187 173 -188 0
187 -173 188 0
187 173 -188 0
-188 -174 189 0
-188 174 189 0
188 -174 -189 0
188 174 -189 0
-189 -175 190 0
-189 175 190 0
189 -175 190 0
189 175 -190 0
-190 -176 -191 0
-190 176 191 0
190 -176 191 0
190 176 -191 0
-191 -177 192 0
-191 177 192 0
191 -177 -192 0
191 177 -192 0
-192 -178 -193 0
-192 178 193 0
192 -178 -193 0
192 178 -193 0
-193 -179 -194 0
-193 179 -194 0
193 -179 194 0
193 179 194 0
-194 -180 -195 0
-194 180 -195 0
194 -180 195 0
194 180 -195 0
-181 196 0
181 -196 0
-196 -182 -197 0
-196 182 -197 0
196 -182 197 0
196 182 -197 0
-197 -183 198 0
-197 183 -198 0
197 -183 198 0
197 183 -198 0
-198 -184 199 0
-198 184 -199 0
198 -184 199 0
198 184 199 0
-199 -185 -200 0
-199 185 200 0
199 -185 -200 0
199 185 -200 0
-200 -186 201 0
-200 186 201 0
200 -186 -201 0
200 186 201 0
-201 -187 202 0
-201 187 -202 0
201 -187 202 0
201 187 -202 0
-202 -188 203 0
-202 188 -203 0
202 -188 203 0
202 188 203 0
-203 -189 -204 0
-203 189 -204 0
203 -189 204 0
203 189 204 0
-204 -190 205 0
-204 190 -205 0
204 -190 -205 0
204 190 205 0
-205 -191 206 0
-205 191 -206 0
205 -191 206 0
205 191 206 0
-206 -192 207 0
-206 192 -207 0
206 -192 -207 0
206 192 -207 0
-207 -193 208 0
-207 193 -208 0
207 -193 -208 0
207 193 -208 0
-208 -194 209 0
-208 194 209 0
208 -194 209 0
208 194 -209 0
-209 -195 -210 0
-209 195 210 0
209 -195 210 0
209 195 -210 0
-196 -211 0
196 211 0
-211 -197 -212 0
-211 197 212 0
211 -197 -212 0
211 197 212 0
-212 -198 -213 0
-212 198 -213 0
212 -198 213 0
212 198 213 0
-213 -199 214 0
-213 199 214 0
213 -199 -214 0
213 199 214 0
-214 -200 -215 0
-214 200 -215 0
214 -200 215 0
214 200 215 0
-215 -201 -216 0
-215 201 216 0
215 -201 216 0
215 201 216 0
-216 -202 217 0
-216 202 217 0
216 -202 217 0
216 202 -217 0
-217 -203 -218 0
-217 203 218 0
217 -203 -218 0
217 203 218 0
-218 -204 -219 0
-218 204 219 0
218 -204 -219 0
218 204 -219 0
-219 -205 220 0
-219 205 220 0
219 -205 220 0
219 205 -220 0
-220 -206 -221 0
-220 206 -221 0
220 -206 221 0
220 206 221 0
-221 -207 -222 0
-221 207 -222 0
221 -207 222 0
221 207 222 0
-222 -208 223 0
-222 208 -223 0
222 -208 -223 0
222 208 -223 0
-223 -209 224 0
-223 209 224 0
223 -209 -224 0
223 209 -224 0
-224 -210 -225 0
-224 210 -225 0
224 -210 -225 0
224 210 225 0
225 0
