data/benchmarks/bayes/90-15-9-q.gr
p tw 1065 756
166 181
198 213
15 30
67 68
47 62
99 100
110 676
59 73
125 674
107 122
159 160
139 154
8 9
40 41
199 214
48 63
100 101
80 95
132 133
92 106
140 155
192 193
152 785
41 42
172 187
73 74
141 794
184 198
109 671
33 47
81 96
133 134
155 796
14 15
125 139
173 188
22 37
74 75
106 107
66 80
114 129
166 167
70 468
47 48
158 172
206 221
7 21
55 70
107 108
99 113
147 162
199 200
48 49
80 81
191 205
11 247
40 54
140 141
132 146
81 82
73 87
173 174
22 23
165 179
14 28
114 115
87 534
206 207
55 56
198 212
47 61
147 148
207 208
139 153
124 677
21 36
199 213
80 94
113 128
152 784
172 186
205 220
54 69
109 670
181 182
146 817
155 795
146 161
173 187
87 102
13 302
214 215
179 194
28 43
206 220
88 103
120 135
21 22
8 241
115 694
124 672
147 161
180 195
29 44
11 246
61 76
113 114
121 136
153 168
205 206
2 17
54 55
62 77
130 697
94 109
146 147
154 169
3 18
35 50
87 88
95 110
127 142
179 180
28 29
187 202
36 51
88 89
68 83
128 143
160 175
29 30
28 303
61 62
124 676
161 814
21 35
69 84
121 122
101 116
153 154
2 3
113 127
161 176
213 214
10 25
62 63
94 95
205 219
54 68
102 117
154 155
13 27
113 630
3 4
146 816
35 36
155 794
146 160
194 209
105 119
43 58
95 96
127 128
87 101
13 301
135 150
187 188
36 37
68 69
123 670
179 193
28 42
76 91
128 129
160 817
160 161
120 134
168 183
220 221
79 93
159 867
69 70
124 671
101 102
161 162
20 34
10 11
153 167
2 16
102 103
130 696
94 108
194 195
53 67
43 44
35 49
127 141
86 100
76 77
9 24
68 82
168 169
27 41
153 782
160 174
42 57
101 115
134 149
60 74
56 467
75 90
98 631
113 629
16 31
174 864
108 123
9 10
13 300
49 64
160 816
186 200
109 124
42 43
159 866
201 216
27 301
82 97
134 135
142 157
23 38
73 533
83 98
115 130
130 695
16 17
175 190
112 628
56 71
108 109
193 207
116 131
138 784
49 50
208 223
57 72
109 110
167 182
89 104
149 164
201 202
50 51
30 45
82 83
42 56
90 105
142 143
200 215
23 24
134 148
182 197
83 84
141 156
115 116
56 466
75 89
123 138
175 176
34 48
24 25
56 57
129 694
64 79
116 117
174 189
108 122
156 171
208 209
67 81
57 58
167 168
71 469
89 90
49 63
159 173
97 112
149 150
8 22
160 815
207 222
189 204
153 785
100 114
148 163
159 865
200 201
27 300
82 96
192 206
182 183
41 55
31 32
141 142
23 37
133 147
123 124
73 532
181 196
115 129
173 866
156 795
74 88
215 216
64 65
122 137
174 175
56 70
156 157
15 29
5 6
138 783
174 867
110 675
88 535
107 121
97 98
167 181
89 103
189 190
48 62
148 149
30 44
140 154
63 78
200 214
222 223
81 95
4 19
141 155
22 36
122 123
114 128
70 467
37 52
112 631
174 188
55 69
71 468
125 677
70 85
207 221
11 26
63 64
148 162
12 247
4 5
141 797
44 59
37 38
156 794
173 865
87 533
122 136
196 211
155 170
129 697
96 111
110 674
18 33
70 71
88 534
130 131
188 203
11 12
170 185
129 144
152 783
163 164
44 45
203 218
162 177
144 159
196 197
103 118
155 156
70 466
137 138
195 210
96 97
18 19
177 192
88 102
136 151
188 189
125 676
8 240
180 194
118 133
170 171
29 43
77 92
129 130
210 225
111 112
169 184
221 222
151 166
12 246
62 76
141 796
110 125
162 163
109 673
203 204
154 168
144 145
202 217
3 17
51 66
103 104
95 109
85 86
87 532
143 158
155 169
187 201
177 178
36 50
136 137
96 110
128 142
118 119
28 302
77 78
115 697
188 202
124 675
69 83
169 170
129 143
161 175
151 152
10 24
152 782
110 111
102 116
202 203
25 40
146 815
51 52
162 176
194 208
43 57
143 144
103 117
135 149
17 32
195 209
168 182
124 670
50 65
77 91
161 817
169 183
25 26
110 124
109 672
24 39
155 797
202 216
51 65
84 99
17 18
143 157
176 191
9 23
123 673
117 132
28 301
209 224
115 696
58 73
124 674
150 165
31 46
91 106
98 630
113 628
146 814
183 198
32 47
84 85
158 159
217 218
124 139
176 177
5 20
17 31
65 80
117 118
109 123
157 172
209 210
6 21
58 59
201 215
191 192
50 64
98 113
161 816
142 156
190 205
39 54
91 92
224 225
83 97
131 146
183 184
130 694
32 33
175 189
24 38
72 87
124 125
84 98
116 130
164 179
216 217
65 66
13 303
176 190
208 222
198 199
57 71
123 672
157 158
6 7
117 131
149 163
139 140
197 212
98 99
28 300
209 223
115 695
58 72
124 673
90 104
190 191
39 40
150 164
182 196
172 173
131 132
123 137
98 629
223 224
72 73
183 197
32 46
64 78
164 165
124 138
156 170
5 19
38 53
65 79
97 111
160 814
130 145
197 198
157 171
189 203
6 20
153 784
159 864
71 86
98 112
161 815
163 178
12 27
190 204
39 53
104 119
56 469
131 145
13 28
113 631
45 60
72 86
105 120
137 152
138 782
38 39
174 866
9 241
164 178
46 61
78 93
123 671
138 153
19 34
71 72
197 211
79 94
63 77
111 126
12 13
27 303
171 186
20 35
4 18
52 67
104 105
112 127
73 535
13 14
98 628
204 219
53 68
37 51
85 100
112 630
145 160
46 47
26 41
78 79
71 467
38 52
86 101
70 84
138 139
19 20
130 144
178 193
27 42
11 25
79 80
153 783
71 85
119 134
171 172
20 21
52 53
163 177
12 26
60 75
44 58
112 113
104 118
152 167
204 205
56 468
1 16
53 54
173 864
45 59
129 696
93 108
145 146
26 27
137 151
185 200
174 865
9 240
18 32
86 87
88 533
78 92
126 141
178 179
27 28
138 152
186 201
170 184
19 33
119 120
111 125
211 212
27 302
171 185
203 217
52 66
152 153
1 2
112 126
73 534
212 213
144 158
93 94
204 218
156 797
85 99
112 629
185 186
145 159
193 208
177 191
138 785
26 40
110 677
126 127
59 74
71 466
125 675
186 187
118 132
218 219
178 192
210 224
92 107
119 133
219 220
141 795
184 199
33 48
125 140
152 166
34 49
66 81
129 695
70 469
93 107
193 194
158 173
7 22
59 60
185 199
88 532
67 82
99 114
126 140
159 174
191 206
8 23
40 55
92 93
100 115
132 147
184 185
33 34
192 207
41 56
25 39
73 88
125 126
133 148
165 180
34 35
14 29
66 67
173 867
156 796
74 89
87 535
106 121
7 8
